DATASET = "thpack6";
INSTANCE = "017";

WIDTH = 233;
HEIGHT = 220;
LENGTH = 587;

NO_OF_SHAPES = 15;
size = [|
  72,49,35 |
  75,66,47 |
  78,30,22 |
  119,79,79 |
  76,65,62 |
  119,81,65 |
  91,77,36 |
  113,89,27 |
  98,59,44 |
  76,55,43 |
  58,51,31 |
  94,40,25 |
  89,66,43 |
  119,55,50 |
  70,43,34 |
|];

verticality = [|
  0,1,1 |
  1,1,1 |
  0,1,1 |
  1,1,1 |
  1,1,1 |
  1,1,1 |
  0,0,1 |
  0,0,1 |
  0,1,1 |
  1,1,1 |
  1,1,1 |
  0,1,1 |
  0,1,1 |
  0,1,1 |
  0,1,1 |
|];

box_count = [
  10,
  9,
  8,
  6,
  9,
  8,
  8,
  9,
  10,
  8,
  8,
  8,
  7,
  4,
  9,
];
